20
1 0 7
2 0 1
2 1 8
3 0 13
3 1 20
3 2 16
4 0 20
4 1 8
4 2 4
4 3 19
5 0 10
5 1 3
5 2 5
5 3 7
5 4 9
6 0 1
6 1 19
6 2 6
6 3 19
6 4 12
6 5 9
7 0 13
7 1 12
7 2 3
7 3 2
7 4 11
7 5 17
7 6 1
8 0 7
8 1 20
8 2 19
8 3 5
8 4 19
8 5 14
8 6 13
8 7 10
9 0 16
9 1 7
9 2 9
9 3 17
9 4 20
9 5 5
9 6 15
9 7 9
9 8 18
10 0 4
10 1 5
10 2 8
10 3 15
10 4 16
10 5 17
10 6 20
10 7 11
10 8 4
10 9 2
11 0 10
11 1 11
11 2 7
11 3 12
11 4 5
11 5 19
11 6 8
11 7 2
11 8 7
11 9 7
11 10 7
12 0 3
12 1 16
12 2 11
12 3 3
12 4 9
12 5 20
12 6 9
12 7 12
12 8 13
12 9 18
12 10 15
12 11 13
13 0 13
13 1 1
13 2 16
13 3 8
13 4 17
13 5 14
13 6 4
13 7 15
13 8 15
13 9 18
13 10 16
13 11 19
13 12 18
14 0 1
14 1 14
14 2 5
14 3 6
14 4 14
14 5 4
14 6 3
14 7 13
14 8 3
14 9 15
14 10 15
14 11 4
14 12 16
14 13 16
15 0 4
15 1 10
15 2 8
15 3 19
15 4 18
15 5 17
15 6 17
15 7 1
15 8 16
15 9 4
15 10 11
15 11 13
15 12 19
15 13 12
15 14 9
16 0 10
16 1 4
16 2 3
16 3 1
16 4 13
16 5 2
16 6 14
16 7 2
16 8 10
16 9 16
16 10 12
16 11 4
16 12 8
16 13 20
16 14 5
16 15 12
17 0 20
17 1 17
17 2 17
17 3 16
17 4 11
17 5 16
17 6 9
17 7 14
17 8 6
17 9 3
17 10 11
17 11 7
17 12 15
17 13 16
17 14 2
17 15 14
17 16 12
18 0 1
18 1 19
18 2 1
18 3 8
18 4 3
18 5 14
18 6 12
18 7 11
18 8 3
18 9 1
18 10 12
18 11 13
18 12 14
18 13 7
18 14 8
18 15 11
18 16 4
18 17 6
19 0 8
19 1 17
19 2 12
19 3 2
19 4 14
19 5 1
19 6 4
19 7 6
19 8 9
19 9 4
19 10 13
19 11 16
19 12 6
19 13 17
19 14 4
19 15 17
19 16 6
19 17 17
19 18 6
